NAME: tsp_294
COMMENT: Random TSP instance
TYPE: TSP
DIMENSION: 50
EDGE_WEIGHT_TYPE: EUC_2D
NODE_COORD_SECTION
1 501 431
2 541 400
3 39 853
4 154 146
5 226 592
6 755 202
7 931 846
8 383 486
9 260 675
10 109 798
11 945 167
12 205 10
13 936 451
14 333 16
15 47 832
16 536 584
17 726 542
18 448 410
19 293 604
20 216 797
21 773 763
22 926 126
23 618 322
24 918 828
25 279 794
26 782 787
27 616 450
28 724 85
29 955 780
30 673 376
31 270 583
32 754 237
33 103 81
34 170 40
35 20 96
36 647 556
37 103 586
38 407 224
39 200 519
40 768 718
41 630 343
42 113 500
43 828 684
44 560 481
45 136 262
46 869 224
47 141 779
48 144 377
49 831 315
50 834 808
